<number of tasks>
50

<cycle time>
1000

<order strength>
0.196


<task times>
1 517
2 502
3 461
4 447
5 421
6 442
7 544
8 694
9 548
10 479
11 593
12 538
13 414
14 643
15 619
16 619
17 564
18 711
19 596
20 673
21 726
22 759
23 560
24 491
25 529
26 485
27 265
28 400
29 587
30 421
31 613
32 509
33 557
34 642
35 600
36 354
37 436
38 287
39 507
40 688
41 471
42 505
43 486
44 734
45 351
46 463
47 369
48 438
49 458
50 332

<precedence relations>
1,32
2,32
3,4
3,5
3,6
3,7
3,8
3,9
3,10
3,11
4,32
5,12
5,16
5,38
8,13
8,14
9,23
10,15
12,17
13,18
13,20
14,21
15,22
15,23
16,19
16,50
17,24
18,27
19,26
20,28
20,29
20,31
21,30
23,25
24,32
25,32
26,34
27,36
28,33
28,37
29,35
30,39
31,38
32,40
32,41
32,42
32,43
32,44
33,45
34,47
35,46
41,50
45,48
46,49

<end>
